(declare-const X String)
; ([a-zA-Z0-9._-]+@[a-zA-Z0-9._-]+\.[a-zA-Z0-9._-]+)
(assert (not (str.in_re X (re.++ (str.to_re "\u{a}") (re.+ (re.union (re.range "a" "z") (re.range "A" "Z") (re.range "0" "9") (str.to_re ".") (str.to_re "_") (str.to_re "-"))) (str.to_re "@") (re.+ (re.union (re.range "a" "z") (re.range "A" "Z") (re.range "0" "9") (str.to_re ".") (str.to_re "_") (str.to_re "-"))) (str.to_re ".") (re.+ (re.union (re.range "a" "z") (re.range "A" "Z") (re.range "0" "9") (str.to_re ".") (str.to_re "_") (str.to_re "-")))))))
; ^((.){1,}(\d){1,}(.){0,})$
(assert (not (str.in_re X (re.++ (str.to_re "\u{a}") (re.+ re.allchar) (re.+ (re.range "0" "9")) (re.* re.allchar)))))
; /\x2epif([\?\x5c\x2f]|$)/smiU
(assert (not (str.in_re X (re.++ (str.to_re "/.pif") (re.union (str.to_re "?") (str.to_re "\u{5c}") (str.to_re "/")) (str.to_re "/smiU\u{a}")))))
; frame_ver2\s+communityLibrarySoftwareWinCrashcomHost\x3Atid\x3D\x25toolbar\x5Fid
(assert (not (str.in_re X (re.++ (str.to_re "frame_ver2") (re.+ (re.union (str.to_re " ") (str.to_re "\u{9}") (str.to_re "\u{a}") (str.to_re "\u{c}") (str.to_re "\u{d}"))) (str.to_re "communityLibrarySoftwareWinCrashcomHost:tid=%toolbar_id\u{a}")))))
; port\d+\.compress\s+aresflashdownloader\x2Ecomv\x2Edll\x3F\[DRIVEHost\x3A\xb0\xae\xb6\xf9\xcd\xf8\xb5\xc1
(assert (not (str.in_re X (re.++ (str.to_re "port") (re.+ (re.range "0" "9")) (str.to_re ".compress") (re.+ (re.union (str.to_re " ") (str.to_re "\u{9}") (str.to_re "\u{a}") (str.to_re "\u{c}") (str.to_re "\u{d}"))) (str.to_re "aresflashdownloader.comv.dll?[DRIVEHost:\u{b0}\u{ae}\u{b6}\u{f9}\u{cd}\u{f8}\u{b5}\u{c1}\u{a}")))))
(check-sat)

(exit)
